NAME : n40w160.005.315.tour
COMMENT : Length = 315
COMMENT : Found by LKH [Keld Helsgaun] Tue May  2 05:19:04 2017
TYPE : TOUR
DIMENSION : 41
TOUR_SECTION
1
5
21
3
19
26
38
18
2
37
25
16
29
12
24
28
4
7
6
10
30
15
8
40
14
31
32
34
22
23
9
27
36
17
39
20
11
33
13
41
35
-1
EOF
